proyfinal/src/viki/013/experimentInOfficeAgust.take6.output/9745dc24-29d7-44a7-9b98-9b1be41c6bf4.als.dat
{'cnf.clauses': '118081',
 'cnf.totvars': '69608',
 'conflict literals': '262',
 'conflicts': '42',
 'decisions': '2577',
 'memused.mb': '17.42',
 'outcome': 'UNSAT',
 'propagations': '86050',
 'restarts': '1',
 'solver.msecs': 35,
 'task.msecs': 74}
