proyfinal/src/viki/013/experimentInOfficeAgust.take6.output/9745dc24-29d7-44a7-9b98-9b1be41c6bf4.als.out
Reading from standard input... Use '--help' for help.
============================[ Problem Statistics ]=============================
|                                                                             |
|  Number of variables:         69608                                         |
|  Number of clauses:          118081                                         |
|  Parse time:                   0.03 s                                       |
|                                                                             |
============================[ Search Statistics ]==============================
| Conflicts |          ORIGINAL         |          LEARNT          | Progress |
|           |    Vars  Clauses Literals |    Limit  Clauses Lit/Cl |          |
===============================================================================
===============================================================================
restarts              : 1
conflicts             : 42             (1182 /sec)
decisions             : 2577           (0.00 % random) (72500 /sec)
propagations          : 86050          (2420875 /sec)
conflict literals     : 262            (17.61 % deleted)
Memory used           : 17.42 MB
CPU time              : 0.035545 s

UNSATISFIABLE
